100
32
23
10
26
2
11
1
6
4
11
13
9
2
1
14
1
11
12
2
2
16
17
4
1
1
17
1
3
1
1
19
2
2
1
1
4
1
2
4
2
3
2
2
2
1
4
1
1
17
3
19
1
2
1
2
2
4
1
17
4
5
6
3
3
3
3
1
3
1
6
1
2
1
20
1
1
2
3
17
1
1
5
2
2
1
2
1
17
1
1
1
3
1
2
2
2
4
1
23
3
2